data/solutions/recovery/wellformed/moderate/flexible/wellformed_moderate_instance64/12.sol
Elapsed time: 90.59
Upper bound: 4861.0
Planning weighted value: 128737.0
C[0]=4861.0
C[1]=4861.0
C[2]=4861.0
C[3]=4861.0
C[4]=0.0
y[0]=2
y[1]=0
y[2]=3
y[3]=1
y[4]=3
y[5]=2
y[6]=1
y[7]=1
y[8]=0
y[9]=2
y[10]=0
y[11]=0
y[12]=2
y[13]=1
y[14]=3
y[15]=1
y[16]=0
y[17]=3
y[18]=2
y[19]=0
y[20]=1
y[21]=2
y[22]=0
y[23]=0
y[24]=3
y[25]=0
y[26]=2
y[27]=0
y[28]=1
y[29]=0
y[30]=2
y[31]=0
y[32]=1
y[33]=2
y[34]=0
y[35]=3
y[36]=2
y[37]=1
y[38]=2
y[39]=1
y[40]=3
