data/solutions/recovery/wellformed/moderate/flexible/wellformed_moderate_instance64/12.log

Log started (V12.6.3.0) Fri Apr 20 19:58:19 2018

New value for default parallel thread count: 1

Problem '/tmp/tmpgEj7nq.pyomo.lp' read.
Read time = 0.00 sec. (0.08 ticks)

Problem name         : /tmp/tmpgEj7nq.pyomo.lp
Objective sense      : Minimize
Variables            :     212  [Nneg: 1,  Binary: 205,  General Integer: 6]
Objective nonzeros   :       1
Linear constraints   :      94  [Less: 46,  Equal: 48]
  Nonzeros           :    5367
  RHS nonzeros       :      83

Variables            : Min LB: 0.000000         Max UB: 1.000000       
Objective nonzeros   : Min   : 1.000000         Max   : 1.000000       
Linear constraints   :
  Nonzeros           : Min   : 1.000000         Max   : 1963.000       
  RHS nonzeros       : Min   : 1.000000         Max   : 5.000000       
Tried aggregator 2 times.
MIP Presolve eliminated 46 rows and 57 columns.
Aggregator did 6 substitutions.
Reduced MIP has 42 rows, 149 columns, and 384 nonzeros.
Reduced MIP has 148 binaries, 1 generals, 0 SOSs, and 0 indicators.
Presolve time = 0.00 sec. (1.37 ticks)
Found incumbent of value 19444.000000 after 0.00 sec. (1.67 ticks)
Probing time = 0.00 sec. (0.12 ticks)
Cover probing fixed 0 vars, tightened 6 bounds.
Tried aggregator 1 time.
Reduced MIP has 42 rows, 149 columns, and 384 nonzeros.
Reduced MIP has 148 binaries, 1 generals, 0 SOSs, and 0 indicators.
Presolve time = 0.00 sec. (0.27 ticks)
Probing time = 0.00 sec. (0.08 ticks)
Clique table members: 37.
MIP emphasis: balance optimality and feasibility.
MIP search method: dynamic search.
Parallel mode: none, using 1 thread.
Root relaxation solution time = 0.00 sec. (0.12 ticks)

        Nodes                                         Cuts/
   Node  Left     Objective  IInf  Best Integer    Best Bound    ItCnt     Gap

*     0+    0                        19444.0000     1963.0000            89.90%
      0     0     4861.0000     5    19444.0000     4861.0000        7   75.00%
*     0+    0                         6105.0000     4861.0000            20.38%
      0     0     4861.0000    11     6105.0000       Cuts: 5       17   20.38%
*     0+    0                         5576.0000     4861.0000            12.82%
*     0+    0                         5264.0000     4861.0000             7.66%
*     0+    0                         5215.0000     4861.0000             6.79%
*     0+    0                         5213.0000     4861.0000             6.75%
      0     2     4861.0000     7     5213.0000     4861.0000       17    6.75%
Elapsed time = 0.01 sec. (6.73 ticks, tree = 0.01 MB, solutions = 6)
*    10+   10                         5181.0000     4861.0000             6.18%
*    20+   20                         5119.0000     4861.0000             5.04%
*    30+   26                         5010.0000     4861.0000             2.97%
*    40+   36                         4955.0000     4861.0000             1.90%
*    51    45      integral     0     4907.0000     4861.0000      130    0.94%
*    54    44      integral     0     4867.0000     4861.0000      140    0.12%
*  2373+  372                         4866.0000     4861.0000             0.10%
   2373   373     4861.0000     6     4866.0000     4861.0000     4923    0.10%
   2374   374     4861.0000     6     4866.0000     4861.0000     4924    0.10%
   2375   375     4861.0000     6     4866.0000     4861.0000     4925    0.10%
   2376   375     4861.0000     6     4866.0000     4861.0000     4926    0.10%
   2377   376     4861.0000     6     4866.0000     4861.0000     4927    0.10%
   2378   377     4861.0000     5     4866.0000     4861.0000     4928    0.10%
   2379   377     4861.0000     8     4866.0000     4861.0000     4932    0.10%
   2380   375     4862.7211     7     4866.0000     4861.0000     4935    0.10%
   2381   374        cutoff           4866.0000     4861.0000     4939    0.10%
*  2973+  522                         4864.0000     4861.0000             0.06%
*  3773+  927                         4863.0000     4861.0000             0.04%
   8394  1981     4861.0000     6     4863.0000     4861.0000    16124    0.04%
Elapsed time = 1.25 sec. (960.57 ticks, tree = 0.55 MB, solutions = 15)
  20413  4729        cutoff           4863.0000     4861.0000    40686    0.04%
  20414  4730     4861.0000     7     4863.0000     4861.0000    40689    0.04%
  20415  4731     4861.0000     6     4863.0000     4861.0000    40691    0.04%
  20416  4732     4861.0000     6     4863.0000     4861.0000    40692    0.04%
  20417  4733     4861.0000     6     4863.0000     4861.0000    40693    0.04%
  20418  4734     4861.0000     6     4863.0000     4861.0000    40694    0.04%
  20419  4735     4861.0000     6     4863.0000     4861.0000    40695    0.04%
  20420  4736     4861.0000     6     4863.0000     4861.0000    40696    0.04%
  20421  4737     4861.0000     6     4863.0000     4861.0000    40697    0.04%
  20422  4738     4861.0000     6     4863.0000     4861.0000    40698    0.04%
Elapsed time = 2.51 sec. (1915.06 ticks, tree = 1.40 MB, solutions = 15)
  36383  7575     4861.0000     8     4863.0000     4861.0000    73580    0.04%
  36384  7576     4861.0000     7     4863.0000     4861.0000    73583    0.04%
  36385  7577     4861.0000     8     4863.0000     4861.0000    73585    0.04%
  36386  7576        cutoff           4863.0000     4861.0000    73589    0.04%
  36387  7575        cutoff           4863.0000     4861.0000    73591    0.04%
  36388  7576     4861.0000     8     4863.0000     4861.0000    73594    0.04%
  36389  7577     4861.0000     6     4863.0000     4861.0000    73596    0.04%
  36390  7578     4861.0000     8     4863.0000     4861.0000    73598    0.04%
  36391  7579     4861.0000     6     4863.0000     4861.0000    73599    0.04%
  36392  7580     4861.0000     6     4863.0000     4861.0000    73600    0.04%
Elapsed time = 3.76 sec. (2869.30 ticks, tree = 2.13 MB, solutions = 15)
  50233 11312     4861.0000     8     4863.0000     4861.0000   103128    0.04%
  50234 11311        cutoff           4863.0000     4861.0000   103130    0.04%
  50235 11310        cutoff           4863.0000     4861.0000   103138    0.04%
  50236 11309    infeasible           4863.0000     4861.0000   103138    0.04%
  50237 11308    infeasible           4863.0000     4861.0000   103138    0.04%
  50238 11309     4861.0000     6     4863.0000     4861.0000   103140    0.04%
  50239 11310     4861.0000     5     4863.0000     4861.0000   103141    0.04%
  50240 11311     4861.0000     6     4863.0000     4861.0000   103142    0.04%
  50241 11312     4861.0000     6     4863.0000     4861.0000   103143    0.04%
  50242 11313     4861.0000     6     4863.0000     4861.0000   103144    0.04%
Elapsed time = 5.00 sec. (3823.46 ticks, tree = 3.30 MB, solutions = 15)
* 61060 17102      integral     0     4862.0000     4861.0000   124569    0.02%
  67068 19946     4861.0000     6     4862.0000     4861.0000   137279    0.02%
  67069 19947     4861.0000     6     4862.0000     4861.0000   137280    0.02%
  67070 19946    infeasible           4862.0000     4861.0000   137281    0.02%
  67071 19945    infeasible           4862.0000     4861.0000   137284    0.02%
  67072 19944    infeasible           4862.0000     4861.0000   137287    0.02%
  67073 19943    infeasible           4862.0000     4861.0000   137291    0.02%
  67074 19942    infeasible           4862.0000     4861.0000   137291    0.02%
  67075 19941    infeasible           4862.0000     4861.0000   137293    0.02%
  67076 19940    infeasible           4862.0000     4861.0000   137293    0.02%
  67077 19939    infeasible           4862.0000     4861.0000   137296    0.02%
Elapsed time = 6.22 sec. (4777.90 ticks, tree = 5.93 MB, solutions = 16)
  81542 25535     4861.0000     6     4862.0000     4861.0000   169151    0.02%
  81543 25534    infeasible           4862.0000     4861.0000   169154    0.02%
  81544 25533    infeasible           4862.0000     4861.0000   169158    0.02%
  81545 25532    infeasible           4862.0000     4861.0000   169158    0.02%
  81546 25533     4861.0000     5     4862.0000     4861.0000   169159    0.02%
  81547 25534     4861.0000     6     4862.0000     4861.0000   169160    0.02%
  81548 25535     4861.0000     6     4862.0000     4861.0000   169161    0.02%
  81549 25536     4861.0000     6     4862.0000     4861.0000   169162    0.02%
  81550 25537     4861.0000     6     4862.0000     4861.0000   169163    0.02%
  81551 25538     4861.0000     6     4862.0000     4861.0000   169164    0.02%
Elapsed time = 7.43 sec. (5732.14 ticks, tree = 7.39 MB, solutions = 16)
  94665 28044     4861.0000     6     4862.0000     4861.0000   200930    0.02%
  94666 28045     4861.0000     6     4862.0000     4861.0000   200931    0.02%
  94667 28046     4861.0000     6     4862.0000     4861.0000   200932    0.02%
  94668 28047     4861.0000     6     4862.0000     4861.0000   200933    0.02%
  94669 28048     4861.0000     6     4862.0000     4861.0000   200934    0.02%
  94670 28049     4861.0000     6     4862.0000     4861.0000   200935    0.02%
  94671 28050     4861.0000     6     4862.0000     4861.0000   200936    0.02%
  94672 28051     4861.0000     6     4862.0000     4861.0000   200937    0.02%
  94673 28052     4861.0000     6     4862.0000     4861.0000   200938    0.02%
  94674 28053     4861.0000     6     4862.0000     4861.0000   200939    0.02%
Elapsed time = 8.67 sec. (6686.25 ticks, tree = 8.04 MB, solutions = 16)
 107445 28976    infeasible           4862.0000     4861.0000   231114    0.02%
 107446 28977     4861.0000     8     4862.0000     4861.0000   231116    0.02%
 107447 28978     4861.0000     6     4862.0000     4861.0000   231119    0.02%
 107448 28979     4861.0000     6     4862.0000     4861.0000   231120    0.02%
 107449 28980     4861.0000     6     4862.0000     4861.0000   231121    0.02%
 107450 28981     4861.0000     6     4862.0000     4861.0000   231122    0.02%
 107451 28982     4861.0000     6     4862.0000     4861.0000   231123    0.02%
 107452 28983     4861.0000     6     4862.0000     4861.0000   231124    0.02%
 107453 28982    infeasible           4862.0000     4861.0000   231133    0.02%
 107454 28983     4861.0000     8     4862.0000     4861.0000   231136    0.02%
Elapsed time = 9.91 sec. (7640.80 ticks, tree = 8.29 MB, solutions = 16)
 120643 30218    infeasible           4862.0000     4861.0000   259565    0.02%
 120644 30217    infeasible           4862.0000     4861.0000   259569    0.02%
 120645 30216    infeasible           4862.0000     4861.0000   259574    0.02%
 120646 30215    infeasible           4862.0000     4861.0000   259578    0.02%
 120647 30216     4861.0000     6     4862.0000     4861.0000   259579    0.02%
 120648 30217     4861.0000     6     4862.0000     4861.0000   259580    0.02%
 120649 30218     4861.0000     6     4862.0000     4861.0000   259582    0.02%
 120650 30219     4861.0000     6     4862.0000     4861.0000   259583    0.02%
 120651 30220     4861.0000     6     4862.0000     4861.0000   259584    0.02%
 120652 30219    infeasible           4862.0000     4861.0000   259590    0.02%
Elapsed time = 11.16 sec. (8595.49 ticks, tree = 8.61 MB, solutions = 16)
 134614 31335    infeasible           4862.0000     4861.0000   288162    0.02%
 134615 31334    infeasible           4862.0000     4861.0000   288162    0.02%
 134616 31333    infeasible           4862.0000     4861.0000   288163    0.02%
 134617 31332    infeasible           4862.0000     4861.0000   288163    0.02%
 134618 31333     4861.0000     6     4862.0000     4861.0000   288165    0.02%
 134619 31334     4861.0000     6     4862.0000     4861.0000   288167    0.02%
 134620 31333    infeasible           4862.0000     4861.0000   288168    0.02%
 134621 31334     4861.0000     6     4862.0000     4861.0000   288169    0.02%
 134622 31335     4861.0000     6     4862.0000     4861.0000   288170    0.02%
 175398 36821    infeasible           4862.0000     4861.0000   377797    0.02%
Elapsed time = 16.08 sec. (12410.24 ticks, tree = 11.28 MB, solutions = 16)
 229657 49688    infeasible           4862.0000     4861.0000   503348    0.02%
 229658 49687    infeasible           4862.0000     4861.0000   503353    0.02%
 229659 49688     4861.0000     5     4862.0000     4861.0000   503356    0.02%
 229660 49687    infeasible           4862.0000     4861.0000   503365    0.02%
 229661 49687     4861.0000     6     4862.0000     4861.0000   503368    0.02%
 229662 49686    infeasible           4862.0000     4861.0000   503380    0.02%
 229663 49687     4861.0000     5     4862.0000     4861.0000   503384    0.02%
 229664 49688     4861.0000     6     4862.0000     4861.0000   503388    0.02%
 229665 49688     4861.0000     6     4862.0000     4861.0000   503391    0.02%
 229666 49689     4861.0000     6     4862.0000     4861.0000   503396    0.02%
Elapsed time = 20.98 sec. (16226.16 ticks, tree = 14.64 MB, solutions = 16)
 280382 55411     4861.0000     8     4862.0000     4861.0000   622066    0.02%
 280383 55412     4861.0000     8     4862.0000     4861.0000   622067    0.02%
 280384 55413     4861.0000     5     4862.0000     4861.0000   622073    0.02%
 280385 55414     4861.0000     5     4862.0000     4861.0000   622074    0.02%
 280386 55413    infeasible           4862.0000     4861.0000   622080    0.02%
 280387 55412    infeasible           4862.0000     4861.0000   622081    0.02%
 280388 55411    infeasible           4862.0000     4861.0000   622086    0.02%
 280389 55410    infeasible           4862.0000     4861.0000   622092    0.02%
 280390 55409    infeasible           4862.0000     4861.0000   622097    0.02%
 280391 55408    infeasible           4862.0000     4861.0000   622104    0.02%
Elapsed time = 25.90 sec. (20041.46 ticks, tree = 16.14 MB, solutions = 16)
 329502 58947    infeasible           4862.0000     4861.0000   740020    0.02%
 329503 58946    infeasible           4862.0000     4861.0000   740021    0.02%
 329504 58945    infeasible           4862.0000     4861.0000   740023    0.02%
 329505 58944    infeasible           4862.0000     4861.0000   740031    0.02%
 329506 58943    infeasible           4862.0000     4861.0000   740036    0.02%
 329507 58942    infeasible           4862.0000     4861.0000   740037    0.02%
 329508 58941    infeasible           4862.0000     4861.0000   740039    0.02%
 329509 58942     4861.0000     6     4862.0000     4861.0000   740042    0.02%
 329510 58943     4861.0000     6     4862.0000     4861.0000   740043    0.02%
 329511 58944     4861.0000     6     4862.0000     4861.0000   740045    0.02%
Elapsed time = 30.74 sec. (23857.34 ticks, tree = 17.07 MB, solutions = 16)
 377086 62270     4861.0000     6     4862.0000     4861.0000   855615    0.02%
 377087 62271     4861.0000     6     4862.0000     4861.0000   855616    0.02%
 377088 62272     4861.0000     6     4862.0000     4861.0000   855617    0.02%
 377089 62273     4861.0000     6     4862.0000     4861.0000   855618    0.02%
 377090 62274     4861.0000     6     4862.0000     4861.0000   855620    0.02%
 377091 62273    infeasible           4862.0000     4861.0000   855623    0.02%
 377092 62274     4861.0000     6     4862.0000     4861.0000   855624    0.02%
 377093 62273    infeasible           4862.0000     4861.0000   855624    0.02%
 377094 62272    infeasible           4862.0000     4861.0000   855627    0.02%
 377095 62271    infeasible           4862.0000     4861.0000   855634    0.02%
Elapsed time = 35.61 sec. (27672.74 ticks, tree = 17.96 MB, solutions = 16)
 428722 64972     4861.0000     6     4862.0000     4861.0000   969857    0.02%
 428723 64973     4861.0000     6     4862.0000     4861.0000   969858    0.02%
 428724 64974     4861.0000     8     4862.0000     4861.0000   969860    0.02%
 428725 64975     4861.0000     6     4862.0000     4861.0000   969862    0.02%
 428726 64976     4861.0000     8     4862.0000     4861.0000   969864    0.02%
 428727 64977     4861.0000     6     4862.0000     4861.0000   969867    0.02%
 428728 64978     4861.0000     6     4862.0000     4861.0000   969868    0.02%
 428729 64979     4861.0000     6     4862.0000     4861.0000   969869    0.02%
 428730 64980     4861.0000     8     4862.0000     4861.0000   969872    0.02%
 428731 64981     4861.0000     6     4862.0000     4861.0000   969873    0.02%
Elapsed time = 40.56 sec. (31487.94 ticks, tree = 18.70 MB, solutions = 16)
 481595 76036     4861.0000     6     4862.0000     4861.0000  1089148    0.02%
 481596 76037     4861.0000     6     4862.0000     4861.0000  1089150    0.02%
 481597 76038     4861.0000     6     4862.0000     4861.0000  1089157    0.02%
 481598 76039     4861.0000     6     4862.0000     4861.0000  1089158    0.02%
 481599 76039     4861.0000     7     4862.0000     4861.0000  1089159    0.02%
 481600 76040     4861.0000     7     4862.0000     4861.0000  1089160    0.02%
 481601 76041     4861.0000     7     4862.0000     4861.0000  1089161    0.02%
 481602 76040    infeasible           4862.0000     4861.0000  1089167    0.02%
 481603 76039    infeasible           4862.0000     4861.0000  1089171    0.02%
 481604 76040     4861.0000     6     4862.0000     4861.0000  1089173    0.02%
Elapsed time = 45.48 sec. (35303.41 ticks, tree = 23.49 MB, solutions = 16)
 533402 83466    infeasible           4862.0000     4861.0000  1216794    0.02%
 533403 83465    infeasible           4862.0000     4861.0000  1216798    0.02%
 533404 83464    infeasible           4862.0000     4861.0000  1216800    0.02%
 533405 83463    infeasible           4862.0000     4861.0000  1216802    0.02%
 533406 83462    infeasible           4862.0000     4861.0000  1216809    0.02%
 533407 83461    infeasible           4862.0000     4861.0000  1216812    0.02%
 533408 83460    infeasible           4862.0000     4861.0000  1216812    0.02%
 533409 83459    infeasible           4862.0000     4861.0000  1216816    0.02%
 533410 83458    infeasible           4862.0000     4861.0000  1216818    0.02%
 533411 83457    infeasible           4862.0000     4861.0000  1216818    0.02%
Elapsed time = 50.39 sec. (39118.92 ticks, tree = 25.43 MB, solutions = 16)
 585402 90463     4861.0000     6     4862.0000     4861.0000  1345510    0.02%
 585403 90464     4861.0000     8     4862.0000     4861.0000  1345513    0.02%
 585404 90465     4861.0000     6     4862.0000     4861.0000  1345514    0.02%
 585405 90464    infeasible           4862.0000     4861.0000  1345521    0.02%
 585406 90463    infeasible           4862.0000     4861.0000  1345523    0.02%
 585407 90462    infeasible           4862.0000     4861.0000  1345528    0.02%
 585408 90461    infeasible           4862.0000     4861.0000  1345533    0.02%
 585409 90460    infeasible           4862.0000     4861.0000  1345536    0.02%
 585410 90459    infeasible           4862.0000     4861.0000  1345537    0.02%
 585411 90458    infeasible           4862.0000     4861.0000  1345540    0.02%
Elapsed time = 55.30 sec. (42934.37 ticks, tree = 27.26 MB, solutions = 16)
 633300 93895    infeasible           4862.0000     4861.0000  1463326    0.02%
 633301 93896     4861.0000     6     4862.0000     4861.0000  1463327    0.02%
 633302 93897     4861.0000     6     4862.0000     4861.0000  1463328    0.02%
 633303 93896    infeasible           4862.0000     4861.0000  1463331    0.02%
 633304 93897     4861.0000     7     4862.0000     4861.0000  1463333    0.02%
 633305 93898     4861.0000     6     4862.0000     4861.0000  1463334    0.02%
 633306 93899     4861.0000     8     4862.0000     4861.0000  1463336    0.02%
 633307 93898    infeasible           4862.0000     4861.0000  1463340    0.02%
 633308 93898     4861.0000     8     4862.0000     4861.0000  1463342    0.02%
 633309 93897    infeasible           4862.0000     4861.0000  1463345    0.02%
Elapsed time = 60.09 sec. (46749.64 ticks, tree = 28.17 MB, solutions = 16)
 683090 97042     4861.0000     8     4862.0000     4861.0000  1585934    0.02%
 683091 97042     4861.0000     8     4862.0000     4861.0000  1585935    0.02%
 683092 97042     4861.0000     8     4862.0000     4861.0000  1585936    0.02%
 683093 97042     4861.0000     8     4862.0000     4861.0000  1585937    0.02%
 683094 97043     4861.0000     8     4862.0000     4861.0000  1585938    0.02%
 683095 97044     4861.0000     8     4862.0000     4861.0000  1585939    0.02%
 683096 97045     4861.0000     8     4862.0000     4861.0000  1585940    0.02%
 683097 97044    infeasible           4862.0000     4861.0000  1585944    0.02%
 683098 97043    infeasible           4862.0000     4861.0000  1585945    0.02%
 683099 97042    infeasible           4862.0000     4861.0000  1585954    0.02%
Elapsed time = 65.00 sec. (50564.86 ticks, tree = 29.04 MB, solutions = 16)
 732305 99357     4861.0000     6     4862.0000     4861.0000  1707046    0.02%
 732306 99358     4861.0000     5     4862.0000     4861.0000  1707047    0.02%
 732307 99359     4861.0000     5     4862.0000     4861.0000  1707048    0.02%
 732308 99358    infeasible           4862.0000     4861.0000  1707052    0.02%
 732309 99359     4861.0000     5     4862.0000     4861.0000  1707053    0.02%
 732310 99360     4861.0000     5     4862.0000     4861.0000  1707054    0.02%
 732311 99361     4861.0000     5     4862.0000     4861.0000  1707056    0.02%
 732312 99360    infeasible           4862.0000     4861.0000  1707064    0.02%
 732313 99361     4861.0000     4     4862.0000     4861.0000  1707068    0.02%
 732314 99360    infeasible           4862.0000     4861.0000  1707070    0.02%
Elapsed time = 69.92 sec. (54380.15 ticks, tree = 29.69 MB, solutions = 16)
 783256 102824     4861.0000     5     4862.0000     4861.0000  1825568    0.02%
 783257 102823    infeasible           4862.0000     4861.0000  1825572    0.02%
 783258 102824     4861.0000     5     4862.0000     4861.0000  1825578    0.02%
 783259 102823    infeasible           4862.0000     4861.0000  1825587    0.02%
 783260 102822    infeasible           4862.0000     4861.0000  1825589    0.02%
 783261 102823     4861.0000     6     4862.0000     4861.0000  1825592    0.02%
 783262 102824     4861.0000     5     4862.0000     4861.0000  1825593    0.02%
 783263 102825     4861.0000     6     4862.0000     4861.0000  1825594    0.02%
 783264 102824    infeasible           4862.0000     4861.0000  1825600    0.02%
 783265 102825     4861.0000     6     4862.0000     4861.0000  1825601    0.02%
Elapsed time = 74.80 sec. (58195.73 ticks, tree = 30.62 MB, solutions = 16)
 833541 106703    infeasible           4862.0000     4861.0000  1940467    0.02%
 833542 106704     4861.0000     8     4862.0000     4861.0000  1940469    0.02%
 833543 106705     4861.0000     5     4862.0000     4861.0000  1940476    0.02%
 833544 106704    infeasible           4862.0000     4861.0000  1940480    0.02%
 833545 106703    infeasible           4862.0000     4861.0000  1940482    0.02%
 833546 106702    infeasible           4862.0000     4861.0000  1940484    0.02%
 833547 106701    infeasible           4862.0000     4861.0000  1940487    0.02%
 833548 106702     4861.0000     7     4862.0000     4861.0000  1940490    0.02%
 833549 106703     4861.0000     6     4862.0000     4861.0000  1940492    0.02%
 833550 106704     4861.0000     8     4862.0000     4861.0000  1940494    0.02%
Elapsed time = 79.70 sec. (62011.29 ticks, tree = 31.65 MB, solutions = 16)
 883642 110921     4861.0000     6     4862.0000     4861.0000  2056657    0.02%
 883643 110920    infeasible           4862.0000     4861.0000  2056662    0.02%
 883644 110921     4861.0000     6     4862.0000     4861.0000  2056664    0.02%
 883645 110922     4861.0000     6     4862.0000     4861.0000  2056665    0.02%
 883646 110923     4861.0000     5     4862.0000     4861.0000  2056666    0.02%
 883647 110924     4861.0000     5     4862.0000     4861.0000  2056667    0.02%
 883648 110923    infeasible           4862.0000     4861.0000  2056672    0.02%
 883649 110922    infeasible           4862.0000     4861.0000  2056675    0.02%
 883650 110921    infeasible           4862.0000     4861.0000  2056675    0.02%
 883651 110922     4861.0000     6     4862.0000     4861.0000  2056679    0.02%
Elapsed time = 84.58 sec. (65826.75 ticks, tree = 32.76 MB, solutions = 16)
 934495 115780     4861.0000     6     4862.0000     4861.0000  2175248    0.02%
 934496 115781     4861.0000     6     4862.0000     4861.0000  2175250    0.02%
 934497 115782     4861.0000     6     4862.0000     4861.0000  2175251    0.02%
 934498 115783     4861.0000     6     4862.0000     4861.0000  2175252    0.02%
 934499 115784     4861.0000     6     4862.0000     4861.0000  2175253    0.02%
 934500 115785     4861.0000     6     4862.0000     4861.0000  2175254    0.02%
 934501 115786     4861.0000     6     4862.0000     4861.0000  2175255    0.02%
 934502 115787     4861.0000     6     4862.0000     4861.0000  2175256    0.02%
 934503 115788     4861.0000     6     4862.0000     4861.0000  2175258    0.02%
 934504 115789     4861.0000     6     4862.0000     4861.0000  2175259    0.02%
Elapsed time = 89.43 sec. (69641.81 ticks, tree = 34.04 MB, solutions = 16)
*942673+    0                         4861.0000     4861.0000             0.00%

Cover cuts applied:  1

Root node processing (before b&c):
  Real time             =    0.01 sec. (6.86 ticks)
Sequential b&c:
  Real time             =   90.56 sec. (70591.41 ticks)
                          ------------
Total (root+branch&cut) =   90.57 sec. (70598.27 ticks)

Solution pool: 17 solutions saved.

MIP - Integer optimal solution:  Objective =  4.8610000000e+03
Solution time =   90.57 sec.  Iterations = 2193623  Nodes = 942673
Deterministic time = 70598.27 ticks  (779.52 ticks/sec)


Incumbent solution written to file '/tmp/tmpcMl56w.cplex.sol'.
